c status 10 1469274441188
c status 8 1469274441188
c status 7 1469274441189
s td 18 7 24
b 1 4 3 1 17
b 2 3 16 1 24 17
b 3 10 5 16 20
b 4 5 16 1 20 12
b 5 16 1 24 20 12 8 17
b 6 1 24 20 12 8 17 2
b 7 11 21 6 17
b 8 21 22 6 20 17
b 9 23 14 22 24
b 10 14 22 6 24 8
b 11 22 6 24 20 12 8 17
b 12 6 24 20 12 8 17 2
b 13 9 15 19 17
b 14 15 7 19 24 17
b 15 13 18 7 2
b 16 18 7 19 8 2
b 17 7 19 24 12 8 17 2
b 18 19 24 20 12 8 17 2
1 2
2 5
5 6
6 12
6 18
18 17
12 11
17 14
11 8
11 10
5 4
17 16
16 15
14 13
8 7
10 9
4 3
